DIMACS2
80 286 231 114 186 45 305 269 303 258 302 219 239 216 143 175 266 241 217 300 120 115 145 146 261 178 259 40 290 222 113 132 301 177 164 25 93 167 41 213 138 106 15 21 210 185 153 163 154 159 212 102 59 50 270 137 135 4 30 279 162 84 310 139 307 237 235 96 234 260 292 89 265 289 55 176 87 107 288 73 192
p edge 320 691
e 0 36 1.0
e 0 234 23.0
e 1 281 1.0
e 1 85 3.0
e 2 282 1.0
e 2 236 1.0
e 3 308 2.0
e 3 5 1.0
e 4 109 47.0
e 4 219 38.0
e 4 270 35.0
e 4 213 28.0
e 4 73 22.0
e 5 117 2.0
e 5 237 49.0
e 6 223 1.0
e 6 199 1.0
e 7 60 2.0
e 7 118 1.0
e 8 139 15.0
e 8 127 2.0
e 9 142 1.0
e 9 270 13.0
e 10 14 1.0
e 10 66 1.0
e 11 272 1.0
e 11 27 2.0
e 12 57 1.0
e 12 139 46.0
e 13 31 2.0
e 13 26 1.0
e 14 135 41.0
e 14 200 1.0
e 15 145 40.0
e 15 95 39.0
e 15 234 49.0
e 15 213 19.0
e 16 99 2.0
e 16 164 31.0
e 17 109 1.0
e 17 6 2.0
e 18 25 39.0
e 18 134 1.0
e 19 218 1.0
e 19 61 1.0
e 20 197 2.0
e 20 54 2.0
e 21 128 44.0
e 21 217 5.0
e 21 219 4.0
e 21 234 34.0
e 22 287 1.0
e 22 158 2.0
e 23 133 1.0
e 23 216 44.0
e 24 309 2.0
e 24 125 1.0
e 25 265 18.0
e 25 69 41.0
e 26 42 1.0
e 26 185 9.0
e 27 164 3.0
e 27 267 1.0
e 28 84 39.0
e 28 132 4.0
e 29 98 1.0
e 29 255 1.0
e 30 310 32.0
e 30 244 9.0
e 31 194 1.0
e 31 71 1.0
e 32 101 2.0
e 32 216 9.0
e 33 214 1.0
e 33 155 1.0
e 34 55 7.0
e 34 228 1.0
e 35 9 1.0
e 35 129 2.0
e 36 245 1.0
e 36 156 1.0
e 37 168 1.0
e 37 56 1.0
e 38 271 1.0
e 38 147 1.0
e 39 248 1.0
e 39 301 13.0
e 40 310 25.0
e 40 137 10.0
e 40 265 12.0
e 40 289 35.0
e 41 164 25.0
e 41 259 33.0
e 41 45 31.0
e 41 50 21.0
e 41 258 32.0
e 42 56 1.0
e 42 1 1.0
e 43 229 1.0
e 43 173 1.0
e 44 166 1.0
e 44 98 1.0
e 45 249 22.0
e 45 7 30.0
e 46 102 29.0
e 46 309 2.0
e 47 43 1.0
e 47 170 1.0
e 48 165 1.0
e 48 28 1.0
e 49 189 1.0
e 49 31 2.0
e 50 97 28.0
e 50 66 32.0
e 50 163 45.0
e 50 300 35.0
e 51 295 3.0
e 51 216 21.0
e 52 282 1.0
e 52 250 2.0
e 53 316 2.0
e 53 84 46.0
e 54 197 1.0
e 54 146 24.0
e 55 116 5.0
e 55 172 15.0
e 55 217 20.0
e 56 215 1.0
e 56 141 2.0
e 57 136 1.0
e 57 249 1.0
e 58 88 3.0
e 58 74 2.0
e 59 78 20.0
e 59 300 5.0
e 59 289 30.0
e 60 88 2.0
e 60 106 46.0
e 61 143 40.0
e 61 43 1.0
e 62 73 11.0
e 62 194 1.0
e 63 54 1.0
e 63 82 2.0
e 64 117 1.0
e 64 33 3.0
e 65 114 20.0
e 65 89 14.0
e 66 192 23.0
e 66 219 5.0
e 67 154 9.0
e 67 231 32.0
e 68 163 17.0
e 68 277 1.0
e 69 26 2.0
e 69 233 1.0
e 70 36 1.0
e 70 134 1.0
e 71 198 1.0
e 71 231 40.0
e 72 10 1.0
e 72 249 1.0
e 73 281 35.0
e 73 34 18.0
e 74 52 1.0
e 74 204 1.0
e 75 72 1.0
e 75 92 2.0
e 76 48 1.0
e 76 189 1.0
e 77 75 1.0
e 77 166 1.0
e 78 270 20.0
e 78 287 2.0
e 79 42 1.0
e 79 232 3.0
e 80 74 1.0
e 80 82 2.0
e 81 228 1.0
e 81 196 2.0
e 82 13 1.0
e 82 85 3.0
e 83 190 1.0
e 83 21 15.0
e 84 25 32.0
e 84 128 21.0
e 85 43 1.0
e 85 183 1.0
e 86 9 1.0
e 86 107 6.0
e 87 250 7.0
e 87 184 24.0
e 87 114 33.0
e 87 89 47.0
e 88 15 13.0
e 88 99 1.0
e 89 127 40.0
e 89 129 14.0
e 90 273 1.0
e 90 23 2.0
e 91 63 1.0
e 91 216 20.0
e 92 318 1.0
e 92 155 1.0
e 93 45 11.0
e 93 95 36.0
e 93 292 1.0
e 93 96 9.0
e 94 47 1.0
e 94 254 1.0
e 95 263 1.0
e 95 124 1.0
e 96 97 7.0
e 96 203 37.0
e 96 102 37.0
e 96 106 4.0
e 97 159 49.0
e 97 67 1.0
e 98 74 2.0
e 98 298 1.0
e 99 71 2.0
e 99 243 1.0
e 100 253 1.0
e 100 238 1.0
e 101 51 1.0
e 101 308 1.0
e 102 184 49.0
e 102 307 19.0
e 102 115 10.0
e 103 18 1.0
e 103 284 1.0
e 104 126 1.0
e 104 248 1.0
e 105 142 2.0
e 105 241 43.0
e 106 245 15.0
e 106 18 37.0
e 107 3 40.0
e 107 153 33.0
e 108 198 2.0
e 108 117 1.0
e 109 74 2.0
e 109 16 1.0
e 110 2 1.0
e 110 278 1.0
e 111 166 1.0
e 111 312 1.0
e 112 27 2.0
e 112 204 1.0
e 113 175 27.0
e 113 201 49.0
e 114 13 26.0
e 114 113 32.0
e 115 126 34.0
e 115 295 16.0
e 115 120 37.0
e 115 132 17.0
e 116 299 2.0
e 116 247 1.0
e 117 1 1.0
e 117 128 1.0
e 118 26 1.0
e 118 151 1.0
e 119 227 1.0
e 119 25 32.0
e 120 166 28.0
e 120 150 21.0
e 120 290 33.0
e 121 224 1.0
e 121 29 2.0
e 122 65 1.0
e 122 149 1.0
e 123 134 1.0
e 123 174 1.0
e 124 123 1.0
e 124 232 1.0
e 125 30 31.0
e 125 246 2.0
e 126 52 1.0
e 126 214 2.0
e 127 269 10.0
e 127 161 1.0
e 128 182 1.0
e 128 127 1.0
e 129 166 1.0
e 129 119 2.0
e 130 142 1.0
e 130 127 1.0
e 131 62 1.0
e 131 277 2.0
e 132 97 20.0
e 132 7 27.0
e 132 137 2.0
e 133 155 1.0
e 133 216 13.0
e 134 227 1.0
e 134 31 1.0
e 135 188 16.0
e 135 221 33.0
e 136 230 1.0
e 136 147 1.0
e 137 171 13.0
e 137 98 19.0
e 137 258 16.0
e 138 141 26.0
e 138 282 5.0
e 138 259 20.0
e 138 145 44.0
e 138 290 18.0
e 139 185 47.0
e 139 183 47.0
e 140 304 1.0
e 140 212 32.0
e 141 253 1.0
e 141 247 1.0
e 142 149 2.0
e 142 303 43.0
e 143 213 26.0
e 143 296 44.0
e 144 210 46.0
e 144 273 1.0
e 145 29 4.0
e 145 288 3.0
e 145 217 9.0
e 146 180 20.0
e 146 84 10.0
e 147 53 2.0
e 147 100 1.0
e 148 105 2.0
e 148 252 1.0
e 149 230 1.0
e 149 231 13.0
e 150 14 2.0
e 150 112 2.0
e 151 156 1.0
e 151 215 2.0
e 152 9 1.0
e 152 30 28.0
e 153 14 44.0
e 153 81 21.0
e 153 192 3.0
e 153 154 20.0
e 154 249 13.0
e 154 37 41.0
e 154 300 13.0
e 155 55 4.0
e 155 265 23.0
e 156 191 1.0
e 156 159 22.0
e 157 8 2.0
e 157 37 1.0
e 158 88 3.0
e 158 39 1.0
e 159 146 25.0
e 159 185 11.0
e 159 279 21.0
e 160 94 1.0
e 160 95 1.0
e 161 219 15.0
e 161 71 1.0
e 162 75 3.0
e 162 112 42.0
e 163 5 16.0
e 163 196 32.0
e 163 176 41.0
e 164 239 32.0
e 164 73 33.0
e 165 47 2.0
e 165 299 2.0
e 166 34 1.0
e 166 288 14.0
e 167 86 38.0
e 167 49 4.0
e 168 120 41.0
e 168 162 5.0
e 169 298 1.0
e 169 37 1.0
e 170 53 2.0
e 170 122 2.0
e 171 126 1.0
e 171 250 1.0
e 172 2 1.0
e 172 14 1.0
e 173 25 29.0
e 173 130 1.0
e 174 173 1.0
e 174 85 1.0
e 175 92 18.0
e 175 212 13.0
e 176 261 46.0
e 176 135 41.0
e 177 297 44.0
e 177 216 7.0
e 177 178 37.0
e 177 235 19.0
e 177 186 43.0
e 178 143 38.0
e 178 229 49.0
e 178 186 30.0
e 178 192 12.0
e 179 220 1.0
e 179 116 1.0
e 180 78 1.0
e 180 18 1.0
e 181 311 1.0
e 181 228 1.0
e 182 202 2.0
e 182 123 2.0
e 183 180 1.0
e 183 114 22.0
e 184 198 2.0
e 184 191 1.0
e 185 5 3.0
e 185 1 13.0
e 186 161 43.0
e 186 103 3.0
e 187 122 1.0
e 187 221 2.0
e 188 74 1.0
e 188 222 44.0
e 189 103 2.0
e 189 25 22.0
e 190 24 1.0
e 190 202 2.0
e 191 216 7.0
e 191 52 1.0
e 192 235 48.0
e 192 82 9.0
e 193 103 2.0
e 193 95 1.0
e 194 116 1.0
e 194 91 2.0
e 195 162 24.0
e 195 108 2.0
e 196 90 1.0
e 196 1 2.0
e 197 233 1.0
e 197 33 2.0
e 198 128 1.0
e 198 68 1.0
e 199 167 37.0
e 199 19 1.0
e 200 260 2.0
e 200 30 47.0
e 201 48 1.0
e 201 294 1.0
e 202 57 1.0
e 202 6 2.0
e 203 229 1.0
e 203 43 1.0
e 204 67 1.0
e 204 147 1.0
e 205 277 2.0
e 205 113 1.0
e 206 122 2.0
e 206 131 2.0
e 207 227 1.0
e 207 46 1.0
e 208 2 1.0
e 208 86 1.0
e 209 79 1.0
e 209 12 1.0
e 210 241 8.0
e 210 302 21.0
e 211 306 1.0
e 211 54 2.0
e 212 106 30.0
e 212 230 8.0
e 213 180 2.0
e 213 117 14.0
e 214 42 2.0
e 214 87 36.0
e 215 46 1.0
e 215 241 31.0
e 216 101 5.0
e 216 140 15.0
e 217 59 23.0
e 217 309 34.0
e 218 83 1.0
e 218 53 1.0
e 219 119 1.0
e 220 241 24.0
e 220 162 5.0
e 221 111 1.0
e 221 18 1.0
e 222 32 17.0
e 222 95 45.0
e 223 222 49.0
e 223 147 2.0
e 224 130 1.0
e 224 101 2.0
e 225 193 1.0
e 225 283 1.0
e 226 257 1.0
e 226 246 1.0
e 227 52 1.0
e 227 100 1.0
e 228 278 1.0
e 228 292 47.0
e 229 201 1.0
e 229 107 3.0
e 230 269 33.0
e 230 207 1.0
e 231 107 9.0
e 231 261 24.0
e 232 176 13.0
e 232 109 1.0
e 233 312 1.0
e 233 191 2.0
e 234 198 46.0
e 234 83 25.0
e 235 156 30.0
e 235 128 41.0
e 235 237 21.0
e 236 28 1.0
e 236 317 1.0
e 237 205 7.0
e 237 12 14.0
e 238 223 1.0
e 238 30 5.0
e 239 75 34.0
e 239 148 39.0
e 239 259 33.0
e 239 260 37.0
e 240 44 1.0
e 240 133 1.0
e 241 169 32.0
e 241 202 6.0
e 242 146 32.0
e 242 140 1.0
e 243 59 49.0
e 243 143 25.0
e 244 274 1.0
e 244 175 28.0
e 245 206 1.0
e 245 123 1.0
e 246 82 1.0
e 246 161 1.0
e 247 197 1.0
e 247 170 2.0
e 248 175 15.0
e 248 30 18.0
e 249 125 1.0
e 249 113 4.0
e 250 297 1.0
e 250 264 1.0
e 251 130 1.0
e 251 179 1.0
e 252 238 1.0
e 252 90 1.0
e 253 229 1.0
e 253 12 1.0
e 254 125 1.0
e 254 296 1.0
e 255 317 1.0
e 255 19 1.0
e 256 110 1.0
e 256 104 1.0
e 257 290 29.0
e 257 31 1.0
e 258 268 31.0
e 258 149 40.0
e 259 289 38.0
e 259 260 29.0
e 260 149 42.0
e 260 99 32.0
e 261 243 20.0
e 261 135 7.0
e 262 45 26.0
e 262 198 1.0
e 263 307 10.0
e 263 237 48.0
e 264 310 22.0
e 264 297 2.0
e 265 79 23.0
e 265 149 4.0
e 266 93 44.0
e 266 139 22.0
e 266 269 43.0
e 266 279 38.0
e 266 292 31.0
e 267 211 1.0
e 267 52 1.0
e 268 64 2.0
e 268 281 1.0
e 269 113 45.0
e 269 61 45.0
e 270 30 8.0
e 270 176 28.0
e 271 316 3.0
e 271 212 38.0
e 272 298 1.0
e 272 166 1.0
e 273 210 8.0
e 273 146 35.0
e 274 14 1.0
e 274 282 1.0
e 275 196 1.0
e 275 312 1.0
e 276 256 2.0
e 276 193 1.0
e 277 190 3.0
e 277 113 18.0
e 278 0 2.0
e 278 147 1.0
e 279 293 42.0
e 279 246 19.0
e 279 301 40.0
e 280 89 25.0
e 280 155 1.0
e 281 40 21.0
e 281 69 1.0
e 282 144 3.0
e 282 107 42.0
e 283 271 1.0
e 283 95 1.0
e 284 274 1.0
e 284 280 2.0
e 285 86 1.0
e 285 66 1.0
e 286 180 41.0
e 286 64 24.0
e 287 155 1.0
e 287 288 45.0
e 288 317 39.0
e 288 258 40.0
e 289 131 40.0
e 289 182 12.0
e 290 206 11.0
e 290 276 30.0
e 291 103 1.0
e 291 229 1.0
e 292 231 35.0
e 292 51 36.0
e 293 167 33.0
e 293 286 22.0
e 294 136 2.0
e 294 77 1.0
e 295 268 2.0
e 295 308 3.0
e 296 88 1.0
e 296 42 1.0
e 297 2 1.0
e 297 215 1.0
e 298 228 1.0
e 298 130 1.0
e 299 317 1.0
e 299 118 1.0
e 300 203 10.0
e 300 166 5.0
e 301 238 48.0
e 301 197 2.0
e 301 302 35.0
e 302 62 1.0
e 302 167 23.0
e 302 303 34.0
e 303 222 17.0
e 303 299 19.0
e 303 305 15.0
e 304 251 1.0
e 304 221 1.0
e 305 79 20.0
e 305 37 5.0
e 306 25 8.0
e 306 318 3.0
e 307 286 1.0
e 307 230 41.0
e 308 210 32.0
e 308 118 1.0
e 309 105 1.0
e 309 1 1.0
e 310 168 7.0
e 310 63 15.0
e 311 168 1.0
e 311 201 2.0
e 312 261 20.0
e 312 286 3.0
e 313 215 2.0
e 313 18 1.0
e 314 273 1.0
e 314 316 1.0
e 315 117 2.0
e 315 247 1.0
e 316 168 1.0
e 316 198 1.0
e 317 307 38.0
e 317 186 22.0
e 318 204 1.0
e 318 227 1.0
e 319 255 1.0
e 319 180 1.0
